(set-logic ALL)
(declare-rel itp (Int Int Int Int))
(declare-rel simple!!query ())
(declare-var X Int)
(declare-var Y Int)
(declare-var Z Int)
(declare-var W Int)
(declare-var X1 Int)
(declare-var Y1 Int)
(declare-var Z1 Int)
(declare-var W1 Int)
(rule (=> (and (= X 1) (<= X Y) (= W 1) (= Z 1)) (itp X Y Z W)))
(rule (=> (and (itp X Y Z W) (<= X Y) (= W1 (* W X)) (or (and (< X Y) (= Z1 (* Z X))) (and (not (< X Y)) (= Z1 Z))) (= X1 (+ X 1))) (itp X1 Y Z1 W1)))
(rule (=> (and (itp X Y Z W) (not (<= X Y)) (not (= W (* Z Y)))) simple!!query))
(query simple!!query)
